param N := 3;

param central_cost := 150;
param distributed_cost := 70;

param max_central := 16;
param max_distributed := 33;

param: isolate_central :=
1 10
2 6
3 8;

param: scan_central :=
1 6
2 4
3 6;

param: isolate_distributed :=
1 12
2 9
3 12;

param: scan_distributed :=
1 18
2 10
3 15;
